NAME           C:\Bruker\Hvattum\knapsack\Problems\class1\100-5-17.mps
ROWS
 N  OBJ
 L  CONSTR1
 L  CONSTR2
 L  CONSTR3
 L  CONSTR4
 L  CONSTR5
COLUMNS
    INT0001   'MARKER'  'INTORG'
    X1        OBJ       579
    X1        CONSTR1   835
    X1        CONSTR2   966
    X1        CONSTR3   354
    X1        CONSTR4   29
    X1        CONSTR5   332
    X2        OBJ       678
    X2        CONSTR1   255
    X2        CONSTR2   222
    X2        CONSTR3   896
    X2        CONSTR4   585
    X2        CONSTR5   391
    X3        OBJ       740
    X3        CONSTR1   797
    X3        CONSTR2   987
    X3        CONSTR3   726
    X3        CONSTR4   71
    X3        CONSTR5   835
    X4        OBJ       681
    X4        CONSTR1   79
    X4        CONSTR2   643
    X4        CONSTR3   133
    X4        CONSTR4   467
    X4        CONSTR5   643
    X5        OBJ       740
    X5        CONSTR1   126
    X5        CONSTR2   508
    X5        CONSTR3   560
    X5        CONSTR4   99
    X5        CONSTR5   771
    X6        OBJ       727
    X6        CONSTR1   39
    X6        CONSTR2   656
    X6        CONSTR3   814
    X6        CONSTR4   646
    X6        CONSTR5   74
    X7        OBJ       644
    X7        CONSTR1   126
    X7        CONSTR2   553
    X7        CONSTR3   511
    X7        CONSTR4   268
    X7        CONSTR5   489
    X8        OBJ       926
    X8        CONSTR1   346
    X8        CONSTR2   578
    X8        CONSTR3   816
    X8        CONSTR4   479
    X8        CONSTR5   219
    X9        OBJ       932
    X9        CONSTR1   302
    X9        CONSTR2   401
    X9        CONSTR3   488
    X9        CONSTR4   245
    X9        CONSTR5   769
    X10       OBJ       1006
    X10       CONSTR1   977
    X10       CONSTR2   1000
    X10       CONSTR3   301
    X10       CONSTR4   321
    X10       CONSTR5   686
    X11       OBJ       840
    X11       CONSTR1   166
    X11       CONSTR2   488
    X11       CONSTR3   180
    X11       CONSTR4   857
    X11       CONSTR5   581
    X12       OBJ       698
    X12       CONSTR1   20
    X12       CONSTR2   44
    X12       CONSTR3   695
    X12       CONSTR4   586
    X12       CONSTR5   103
    X13       OBJ       566
    X13       CONSTR1   489
    X13       CONSTR2   163
    X13       CONSTR3   581
    X13       CONSTR4   758
    X13       CONSTR5   732
    X14       OBJ       675
    X14       CONSTR1   654
    X14       CONSTR2   227
    X14       CONSTR3   474
    X14       CONSTR4   707
    X14       CONSTR5   654
    X15       OBJ       577
    X15       CONSTR1   193
    X15       CONSTR2   587
    X15       CONSTR3   185
    X15       CONSTR4   252
    X15       CONSTR5   310
    X16       OBJ       714
    X16       CONSTR1   489
    X16       CONSTR2   633
    X16       CONSTR3   615
    X16       CONSTR4   299
    X16       CONSTR5   791
    X17       OBJ       917
    X17       CONSTR1   419
    X17       CONSTR2   946
    X17       CONSTR3   22
    X17       CONSTR4   544
    X17       CONSTR5   528
    X18       OBJ       196
    X18       CONSTR1   248
    X18       CONSTR2   53
    X18       CONSTR3   13
    X18       CONSTR4   270
    X18       CONSTR5   80
    X19       OBJ       714
    X19       CONSTR1   250
    X19       CONSTR2   350
    X19       CONSTR3   216
    X19       CONSTR4   717
    X19       CONSTR5   299
    X20       OBJ       542
    X20       CONSTR1   557
    X20       CONSTR2   298
    X20       CONSTR3   48
    X20       CONSTR4   216
    X20       CONSTR5   619
    X21       OBJ       982
    X21       CONSTR1   755
    X21       CONSTR2   995
    X21       CONSTR3   62
    X21       CONSTR4   861
    X21       CONSTR5   482
    X22       OBJ       612
    X22       CONSTR1   75
    X22       CONSTR2   956
    X22       CONSTR3   302
    X22       CONSTR4   198
    X22       CONSTR5   42
    X23       OBJ       872
    X23       CONSTR1   363
    X23       CONSTR2   825
    X23       CONSTR3   521
    X23       CONSTR4   461
    X23       CONSTR5   950
    X24       OBJ       1008
    X24       CONSTR1   699
    X24       CONSTR2   630
    X24       CONSTR3   213
    X24       CONSTR4   366
    X24       CONSTR5   799
    X25       OBJ       1083
    X25       CONSTR1   740
    X25       CONSTR2   975
    X25       CONSTR3   323
    X25       CONSTR4   768
    X25       CONSTR5   461
    X26       OBJ       681
    X26       CONSTR1   233
    X26       CONSTR2   583
    X26       CONSTR3   176
    X26       CONSTR4   295
    X26       CONSTR5   900
    X27       OBJ       638
    X27       CONSTR1   944
    X27       CONSTR2   457
    X27       CONSTR3   546
    X27       CONSTR4   410
    X27       CONSTR5   802
    X28       OBJ       1051
    X28       CONSTR1   13
    X28       CONSTR2   381
    X28       CONSTR3   729
    X28       CONSTR4   825
    X28       CONSTR5   842
    X29       OBJ       646
    X29       CONSTR1   755
    X29       CONSTR2   155
    X29       CONSTR3   478
    X29       CONSTR4   330
    X29       CONSTR5   141
    X30       OBJ       791
    X30       CONSTR1   208
    X30       CONSTR2   44
    X30       CONSTR3   314
    X30       CONSTR4   598
    X30       CONSTR5   618
    X31       OBJ       599
    X31       CONSTR1   158
    X31       CONSTR2   355
    X31       CONSTR3   839
    X31       CONSTR4   205
    X31       CONSTR5   836
    X32       OBJ       929
    X32       CONSTR1   626
    X32       CONSTR2   658
    X32       CONSTR3   949
    X32       CONSTR4   964
    X32       CONSTR5   549
    X33       OBJ       806
    X33       CONSTR1   765
    X33       CONSTR2   470
    X33       CONSTR3   951
    X33       CONSTR4   870
    X33       CONSTR5   68
    X34       OBJ       906
    X34       CONSTR1   252
    X34       CONSTR2   284
    X34       CONSTR3   570
    X34       CONSTR4   983
    X34       CONSTR5   319
    X35       OBJ       530
    X35       CONSTR1   127
    X35       CONSTR2   640
    X35       CONSTR3   769
    X35       CONSTR4   177
    X35       CONSTR5   355
    X36       OBJ       767
    X36       CONSTR1   170
    X36       CONSTR2   419
    X36       CONSTR3   420
    X36       CONSTR4   552
    X36       CONSTR5   460
    X37       OBJ       568
    X37       CONSTR1   310
    X37       CONSTR2   948
    X37       CONSTR3   326
    X37       CONSTR4   388
    X37       CONSTR5   567
    X38       OBJ       660
    X38       CONSTR1   955
    X38       CONSTR2   943
    X38       CONSTR3   297
    X38       CONSTR4   18
    X38       CONSTR5   291
    X39       OBJ       528
    X39       CONSTR1   178
    X39       CONSTR2   246
    X39       CONSTR3   382
    X39       CONSTR4   404
    X39       CONSTR5   142
    X40       OBJ       738
    X40       CONSTR1   786
    X40       CONSTR2   784
    X40       CONSTR3   170
    X40       CONSTR4   485
    X40       CONSTR5   238
    X41       OBJ       830
    X41       CONSTR1   881
    X41       CONSTR2   197
    X41       CONSTR3   185
    X41       CONSTR4   70
    X41       CONSTR5   1000
    X42       OBJ       1127
    X42       CONSTR1   653
    X42       CONSTR2   438
    X42       CONSTR3   844
    X42       CONSTR4   956
    X42       CONSTR5   369
    X43       OBJ       510
    X43       CONSTR1   829
    X43       CONSTR2   164
    X43       CONSTR3   340
    X43       CONSTR4   66
    X43       CONSTR5   394
    X44       OBJ       604
    X44       CONSTR1   552
    X44       CONSTR2   109
    X44       CONSTR3   968
    X44       CONSTR4   449
    X44       CONSTR5   588
    X45       OBJ       670
    X45       CONSTR1   27
    X45       CONSTR2   277
    X45       CONSTR3   841
    X45       CONSTR4   596
    X45       CONSTR5   434
    X46       OBJ       673
    X46       CONSTR1   88
    X46       CONSTR2   525
    X46       CONSTR3   807
    X46       CONSTR4   39
    X46       CONSTR5   704
    X47       OBJ       748
    X47       CONSTR1   58
    X47       CONSTR2   675
    X47       CONSTR3   325
    X47       CONSTR4   174
    X47       CONSTR5   704
    X48       OBJ       404
    X48       CONSTR1   143
    X48       CONSTR2   79
    X48       CONSTR3   393
    X48       CONSTR4   347
    X48       CONSTR5   483
    X49       OBJ       910
    X49       CONSTR1   414
    X49       CONSTR2   353
    X49       CONSTR3   299
    X49       CONSTR4   559
    X49       CONSTR5   471
    X50       OBJ       595
    X50       CONSTR1   365
    X50       CONSTR2   301
    X50       CONSTR3   354
    X50       CONSTR4   544
    X50       CONSTR5   39
    X51       OBJ       902
    X51       CONSTR1   435
    X51       CONSTR2   446
    X51       CONSTR3   776
    X51       CONSTR4   761
    X51       CONSTR5   96
    X52       OBJ       734
    X52       CONSTR1   208
    X52       CONSTR2   576
    X52       CONSTR3   706
    X52       CONSTR4   789
    X52       CONSTR5   753
    X53       OBJ       754
    X53       CONSTR1   630
    X53       CONSTR2   462
    X53       CONSTR3   447
    X53       CONSTR4   424
    X53       CONSTR5   201
    X54       OBJ       786
    X54       CONSTR1   620
    X54       CONSTR2   450
    X54       CONSTR3   1
    X54       CONSTR4   756
    X54       CONSTR5   664
    X55       OBJ       780
    X55       CONSTR1   13
    X55       CONSTR2   816
    X55       CONSTR3   614
    X55       CONSTR4   158
    X55       CONSTR5   528
    X56       OBJ       316
    X56       CONSTR1   268
    X56       CONSTR2   2
    X56       CONSTR3   228
    X56       CONSTR4   61
    X56       CONSTR5   529
    X57       OBJ       887
    X57       CONSTR1   606
    X57       CONSTR2   858
    X57       CONSTR3   890
    X57       CONSTR4   310
    X57       CONSTR5   881
    X58       OBJ       858
    X58       CONSTR1   576
    X58       CONSTR2   305
    X58       CONSTR3   364
    X58       CONSTR4   50
    X58       CONSTR5   791
    X59       OBJ       954
    X59       CONSTR1   653
    X59       CONSTR2   647
    X59       CONSTR3   135
    X59       CONSTR4   867
    X59       CONSTR5   995
    X60       OBJ       1114
    X60       CONSTR1   795
    X60       CONSTR2   374
    X60       CONSTR3   504
    X60       CONSTR4   731
    X60       CONSTR5   863
    X61       OBJ       524
    X61       CONSTR1   104
    X61       CONSTR2   31
    X61       CONSTR3   892
    X61       CONSTR4   25
    X61       CONSTR5   155
    X62       OBJ       856
    X62       CONSTR1   722
    X62       CONSTR2   448
    X62       CONSTR3   595
    X62       CONSTR4   119
    X62       CONSTR5   539
    X63       OBJ       840
    X63       CONSTR1   373
    X63       CONSTR2   324
    X63       CONSTR3   176
    X63       CONSTR4   751
    X63       CONSTR5   137
    X64       OBJ       1002
    X64       CONSTR1   643
    X64       CONSTR2   394
    X64       CONSTR3   119
    X64       CONSTR4   584
    X64       CONSTR5   979
    X65       OBJ       961
    X65       CONSTR1   478
    X65       CONSTR2   339
    X65       CONSTR3   897
    X65       CONSTR4   122
    X65       CONSTR5   495
    X66       OBJ       723
    X66       CONSTR1   470
    X66       CONSTR2   419
    X66       CONSTR3   232
    X66       CONSTR4   156
    X66       CONSTR5   778
    X67       OBJ       915
    X67       CONSTR1   996
    X67       CONSTR2   39
    X67       CONSTR3   397
    X67       CONSTR4   788
    X67       CONSTR5   570
    X68       OBJ       882
    X68       CONSTR1   802
    X68       CONSTR2   452
    X68       CONSTR3   974
    X68       CONSTR4   427
    X68       CONSTR5   302
    X69       OBJ       879
    X69       CONSTR1   523
    X69       CONSTR2   345
    X69       CONSTR3   592
    X69       CONSTR4   223
    X69       CONSTR5   965
    X70       OBJ       648
    X70       CONSTR1   672
    X70       CONSTR2   810
    X70       CONSTR3   346
    X70       CONSTR4   784
    X70       CONSTR5   186
    X71       OBJ       378
    X71       CONSTR1   633
    X71       CONSTR2   181
    X71       CONSTR3   478
    X71       CONSTR4   243
    X71       CONSTR5   267
    X72       OBJ       478
    X72       CONSTR1   490
    X72       CONSTR2   201
    X72       CONSTR3   451
    X72       CONSTR4   723
    X72       CONSTR5   413
    X73       OBJ       867
    X73       CONSTR1   848
    X73       CONSTR2   629
    X73       CONSTR3   341
    X73       CONSTR4   864
    X73       CONSTR5   256
    X74       OBJ       487
    X74       CONSTR1   341
    X74       CONSTR2   227
    X74       CONSTR3   484
    X74       CONSTR4   693
    X74       CONSTR5   387
    X75       OBJ       640
    X75       CONSTR1   630
    X75       CONSTR2   801
    X75       CONSTR3   612
    X75       CONSTR4   122
    X75       CONSTR5   532
    X76       OBJ       936
    X76       CONSTR1   888
    X76       CONSTR2   195
    X76       CONSTR3   563
    X76       CONSTR4   500
    X76       CONSTR5   472
    X77       OBJ       462
    X77       CONSTR1   776
    X77       CONSTR2   121
    X77       CONSTR3   182
    X77       CONSTR4   786
    X77       CONSTR5   135
    X78       OBJ       188
    X78       CONSTR1   113
    X78       CONSTR2   160
    X78       CONSTR3   122
    X78       CONSTR4   258
    X78       CONSTR5   78
    X79       OBJ       417
    X79       CONSTR1   173
    X79       CONSTR2   220
    X79       CONSTR3   704
    X79       CONSTR4   623
    X79       CONSTR5   319
    X80       OBJ       478
    X80       CONSTR1   178
    X80       CONSTR2   350
    X80       CONSTR3   424
    X80       CONSTR4   137
    X80       CONSTR5   393
    X81       OBJ       624
    X81       CONSTR1   771
    X81       CONSTR2   698
    X81       CONSTR3   616
    X81       CONSTR4   238
    X81       CONSTR5   275
    X82       OBJ       1004
    X82       CONSTR1   899
    X82       CONSTR2   865
    X82       CONSTR3   742
    X82       CONSTR4   694
    X82       CONSTR5   971
    X83       OBJ       723
    X83       CONSTR1   587
    X83       CONSTR2   420
    X83       CONSTR3   231
    X83       CONSTR4   345
    X83       CONSTR5   985
    X84       OBJ       515
    X84       CONSTR1   300
    X84       CONSTR2   665
    X84       CONSTR3   27
    X84       CONSTR4   885
    X84       CONSTR5   325
    X85       OBJ       1047
    X85       CONSTR1   971
    X85       CONSTR2   250
    X85       CONSTR3   368
    X85       CONSTR4   761
    X85       CONSTR5   989
    X86       OBJ       785
    X86       CONSTR1   738
    X86       CONSTR2   224
    X86       CONSTR3   46
    X86       CONSTR4   639
    X86       CONSTR5   501
    X87       OBJ       672
    X87       CONSTR1   270
    X87       CONSTR2   237
    X87       CONSTR3   887
    X87       CONSTR4   683
    X87       CONSTR5   189
    X88       OBJ       679
    X88       CONSTR1   241
    X88       CONSTR2   606
    X88       CONSTR3   565
    X88       CONSTR4   945
    X88       CONSTR5   660
    X89       OBJ       822
    X89       CONSTR1   664
    X89       CONSTR2   660
    X89       CONSTR3   968
    X89       CONSTR4   689
    X89       CONSTR5   834
    X90       OBJ       432
    X90       CONSTR1   502
    X90       CONSTR2   70
    X90       CONSTR3   303
    X90       CONSTR4   510
    X90       CONSTR5   111
    X91       OBJ       552
    X91       CONSTR1   264
    X91       CONSTR2   674
    X91       CONSTR3   456
    X91       CONSTR4   551
    X91       CONSTR5   357
    X92       OBJ       629
    X92       CONSTR1   793
    X92       CONSTR2   288
    X92       CONSTR3   333
    X92       CONSTR4   653
    X92       CONSTR5   320
    X93       OBJ       523
    X93       CONSTR1   428
    X93       CONSTR2   282
    X93       CONSTR3   119
    X93       CONSTR4   253
    X93       CONSTR5   237
    X94       OBJ       449
    X94       CONSTR1   431
    X94       CONSTR2   97
    X94       CONSTR3   525
    X94       CONSTR4   491
    X94       CONSTR5   499
    X95       OBJ       567
    X95       CONSTR1   865
    X95       CONSTR2   97
    X95       CONSTR3   203
    X95       CONSTR4   12
    X95       CONSTR5   904
    X96       OBJ       652
    X96       CONSTR1   375
    X96       CONSTR2   927
    X96       CONSTR3   720
    X96       CONSTR4   376
    X96       CONSTR5   639
    X97       OBJ       668
    X97       CONSTR1   253
    X97       CONSTR2   974
    X97       CONSTR3   503
    X97       CONSTR4   122
    X97       CONSTR5   995
    X98       OBJ       516
    X98       CONSTR1   270
    X98       CONSTR2   66
    X98       CONSTR3   777
    X98       CONSTR4   64
    X98       CONSTR5   238
    X99       OBJ       584
    X99       CONSTR1   374
    X99       CONSTR2   74
    X99       CONSTR3   452
    X99       CONSTR4   103
    X99       CONSTR5   74
    X100      OBJ       683
    X100      CONSTR1   391
    X100      CONSTR2   292
    X100      CONSTR3   548
    X100      CONSTR4   805
    X100      CONSTR5   297
    INT0001   'MARKER'  'INTEND'
RHS
    RHS10001  CONSTR1   23267
    RHS10001  CONSTR2   22629
    RHS10001  CONSTR3   23478
    RHS10001  CONSTR4   23014
    RHS10001  CONSTR5   25007
BOUNDS
 BV BND       X1        .00
 BV BND       X2        .00
 BV BND       X3        .00
 BV BND       X4        .00
 BV BND       X5        .00
 BV BND       X6        .00
 BV BND       X7        .00
 BV BND       X8        .00
 BV BND       X9        .00
 BV BND       X10       .00
 BV BND       X11       .00
 BV BND       X12       .00
 BV BND       X13       .00
 BV BND       X14       .00
 BV BND       X15       .00
 BV BND       X16       .00
 BV BND       X17       .00
 BV BND       X18       .00
 BV BND       X19       .00
 BV BND       X20       .00
 BV BND       X21       .00
 BV BND       X22       .00
 BV BND       X23       .00
 BV BND       X24       .00
 BV BND       X25       .00
 BV BND       X26       .00
 BV BND       X27       .00
 BV BND       X28       .00
 BV BND       X29       .00
 BV BND       X30       .00
 BV BND       X31       .00
 BV BND       X32       .00
 BV BND       X33       .00
 BV BND       X34       .00
 BV BND       X35       .00
 BV BND       X36       .00
 BV BND       X37       .00
 BV BND       X38       .00
 BV BND       X39       .00
 BV BND       X40       .00
 BV BND       X41       .00
 BV BND       X42       .00
 BV BND       X43       .00
 BV BND       X44       .00
 BV BND       X45       .00
 BV BND       X46       .00
 BV BND       X47       .00
 BV BND       X48       .00
 BV BND       X49       .00
 BV BND       X50       .00
 BV BND       X51       .00
 BV BND       X52       .00
 BV BND       X53       .00
 BV BND       X54       .00
 BV BND       X55       .00
 BV BND       X56       .00
 BV BND       X57       .00
 BV BND       X58       .00
 BV BND       X59       .00
 BV BND       X60       .00
 BV BND       X61       .00
 BV BND       X62       .00
 BV BND       X63       .00
 BV BND       X64       .00
 BV BND       X65       .00
 BV BND       X66       .00
 BV BND       X67       .00
 BV BND       X68       .00
 BV BND       X69       .00
 BV BND       X70       .00
 BV BND       X71       .00
 BV BND       X72       .00
 BV BND       X73       .00
 BV BND       X74       .00
 BV BND       X75       .00
 BV BND       X76       .00
 BV BND       X77       .00
 BV BND       X78       .00
 BV BND       X79       .00
 BV BND       X80       .00
 BV BND       X81       .00
 BV BND       X82       .00
 BV BND       X83       .00
 BV BND       X84       .00
 BV BND       X85       .00
 BV BND       X86       .00
 BV BND       X87       .00
 BV BND       X88       .00
 BV BND       X89       .00
 BV BND       X90       .00
 BV BND       X91       .00
 BV BND       X92       .00
 BV BND       X93       .00
 BV BND       X94       .00
 BV BND       X95       .00
 BV BND       X96       .00
 BV BND       X97       .00
 BV BND       X98       .00
 BV BND       X99       .00
 BV BND       X100      .00
ENDATA
